Reading model...
...model read.
creating competitive generators file...
...competitive generators recorded.
Loading data...
.. day-ahead data with real-time VRE data read.
Compiling instance...
...instance created.
Creating Offer Mitigation (model will solve as dispatch if TRUE)...
...storage offer mitigation file created
Converting model to MPEC...
...converted
NOTE: initial MIP solve with only storage competitive to get feasible solution
Solving...

Welcome to IBM(R) ILOG(R) CPLEX(R) Interactive Optimizer 12.10.0.0
  with Simplex, Mixed Integer & Barrier Optimizers
5725-A06 5725-A29 5724-Y48 5724-Y49 5724-Y54 5724-Y55 5655-Y21
Copyright IBM Corp. 1988, 2019.  All Rights Reserved.

Type 'help' for a list of available commands.
Type 'help' followed by a command name for more
information on commands.

CPLEX> Logfile 'cplex.log' closed.
Logfile 'C:\Users\wenmi\Desktop\competitiveMPEC\logs\tmphp7vnkzl.cplex.log' open.
CPLEX> New value for parallel optimization mode: -1
CPLEX> New value for mixed integer optimality gap tolerance: 0.01
CPLEX> New value for integrality tolerance: 1e-09
CPLEX> New value for feasibility tolerance: 0.01
CPLEX> New value for deterministic time limit in ticks: 75000
CPLEX> Problem 'C:\Users\wenmi\Desktop\competitiveMPEC\logs\tmpljva1xgi.pyomo.lp' read.
Read time = 0.17 sec. (14.71 ticks)
CPLEX> Problem name         : C:\Users\wenmi\Desktop\competitiveMPEC\logs\tmpljva1xgi.pyomo.lp
Objective sense      : Maximize
Variables            :   53805  [Nneg: 1,  Box: 22000,  Free: 4464,
                                 Binary: 27340]
Objective nonzeros   :    9029
Linear constraints   :  123205  [Less: 41250,  Greater: 59096,  Equal: 22859]
  Nonzeros           :  291753
  RHS nonzeros       :   67395

Variables            : Min LB: -5000.000        Max UB: 1000000.       
Objective nonzeros   : Min   : 0.07500000       Max   : 2500.000       
Linear constraints   :
  Nonzeros           : Min   : 0.07500000       Max   : 1000000.       
  RHS nonzeros       : Min   : 0.07500000       Max   : 1000000.       
CPLEX> Version identifier: 12.10.0.0 | 2019-11-26 | 843d4de2ae
CPXPARAM_Parallel                                -1
CPXPARAM_Simplex_Tolerances_Feasibility          0.01
CPXPARAM_DetTimeLimit                            75000
CPXPARAM_MIP_Tolerances_MIPGap                   0.01
CPXPARAM_MIP_Tolerances_Integrality              1.0000000000000001e-09
Tried aggregator 3 times.
MIP Presolve eliminated 88726 rows and 19074 columns.
MIP Presolve added 3347 rows and 0 columns.
MIP Presolve modified 24874 coefficients.
Aggregator did 12948 substitutions.
Reduced MIP has 24878 rows, 21227 columns, and 70940 nonzeros.
Reduced MIP has 8399 binaries, 0 generals, 0 SOSs, and 0 indicators.
Presolve time = 0.19 sec. (171.03 ticks)
Probing fixed 370 vars, tightened 2850 bounds.
Probing time = 0.83 sec. (874.17 ticks)
Tried aggregator 2 times.
Detecting symmetries...
MIP Presolve eliminated 834 rows and 742 columns.
MIP Presolve modified 2234 coefficients.
Aggregator did 44 substitutions.
Reduced MIP has 24000 rows, 20441 columns, and 68398 nonzeros.
Reduced MIP has 8028 binaries, 0 generals, 0 SOSs, and 0 indicators.
Presolve time = 0.06 sec. (68.50 ticks)
Probing time = 0.02 sec. (15.78 ticks)
Clique table members: 6356.
MIP emphasis: balance optimality and feasibility.
MIP search method: dynamic search.
Parallel mode: opportunistic, using up to 16 threads.
Root relaxation solution time = 0.28 sec. (239.89 ticks)

        Nodes                                         Cuts/
   Node  Left     Objective  IInf  Best Integer    Best Bound    ItCnt     Gap

      0     0     3980.7076   764                   3980.7076     3610         
*     0     0      integral     0     3980.7076     3980.7076     3610    0.00%
Elapsed time = 3.19 sec. (2723.98 ticks, tree = 0.01 MB, solutions = 1)

Root node processing (before b&c):
  Real time             =    3.19 sec. (2725.92 ticks)
Parallel b&c, 16 threads:
  Real time             =    0.00 sec. (0.00 ticks)
  Sync time (average)   =    0.00 sec.
  Wait time (average)   =    0.00 sec.
                          ------------
Total (root+branch&cut) =    3.19 sec. (2725.92 ticks)

Solution pool: 1 solution saved.

MIP - Integer optimal solution:  Objective =  3.9807076410e+03
Solution time =    3.19 sec.  Iterations = 3610  Nodes = 0
Deterministic time = 2726.08 ticks  (855.11 ticks/sec)

CPLEX> Incumbent solution written to file 'C:\Users\wenmi\Desktop\competitiveMPEC\logs\tmpcsmun3a3.cplex.sol'.
CPLEX> NOTE: no warmstart specified for MIP iteration, default behavior is true
NOTE: resolving with all competitive generators using storage-only solution to warmstart
Solving...

Welcome to IBM(R) ILOG(R) CPLEX(R) Interactive Optimizer 12.10.0.0
  with Simplex, Mixed Integer & Barrier Optimizers
5725-A06 5725-A29 5724-Y48 5724-Y49 5724-Y54 5724-Y55 5655-Y21
Copyright IBM Corp. 1988, 2019.  All Rights Reserved.

Type 'help' for a list of available commands.
Type 'help' followed by a command name for more
information on commands.

CPLEX> Logfile 'cplex.log' closed.
Logfile 'C:\Users\wenmi\Desktop\competitiveMPEC\logs\tmpyajoo4ux.cplex.log' open.
CPLEX> New value for parallel optimization mode: -1
CPLEX> New value for mixed integer optimality gap tolerance: 0.01
CPLEX> New value for integrality tolerance: 1e-09
CPLEX> New value for feasibility tolerance: 0.01
CPLEX> New value for deterministic time limit in ticks: 75000
CPLEX> Problem 'C:\Users\wenmi\Desktop\competitiveMPEC\logs\tmp8sun_084.pyomo.lp' read.
Read time = 0.16 sec. (14.74 ticks)
CPLEX> MIP start file 'C:\Users\wenmi\Desktop\competitiveMPEC\logs\tmp09jvf6zp.cplex.mst' read.
CPLEX> Problem name         : C:\Users\wenmi\Desktop\competitiveMPEC\logs\tmp8sun_084.pyomo.lp
Objective sense      : Maximize
Variables            :   54525  [Nneg: 1,  Box: 22720,  Free: 4464,
                                 Binary: 27340]
Objective nonzeros   :    9725
Linear constraints   :  123205  [Less: 41250,  Greater: 59096,  Equal: 22859]
  Nonzeros           :  291753
  RHS nonzeros       :   67395

Variables            : Min LB: -5000.000        Max UB: 1000000.       
Objective nonzeros   : Min   : 0.07500000       Max   : 2500.000       
Linear constraints   :
  Nonzeros           : Min   : 0.07500000       Max   : 1000000.       
  RHS nonzeros       : Min   : 0.07500000       Max   : 1000000.       
CPLEX> Version identifier: 12.10.0.0 | 2019-11-26 | 843d4de2ae
CPXPARAM_Parallel                                -1
CPXPARAM_Simplex_Tolerances_Feasibility          0.01
CPXPARAM_DetTimeLimit                            75000
CPXPARAM_MIP_Tolerances_MIPGap                   0.01
CPXPARAM_MIP_Tolerances_Integrality              1.0000000000000001e-09
Warning:  No solution found from 1 MIP starts.
Retaining values of one MIP start for possible repair.
Tried aggregator 3 times.
MIP Presolve eliminated 88726 rows and 19794 columns.
MIP Presolve added 3347 rows and 0 columns.
MIP Presolve modified 24874 coefficients.
Aggregator did 12948 substitutions.
Reduced MIP has 24878 rows, 21227 columns, and 70940 nonzeros.
Reduced MIP has 8399 binaries, 0 generals, 0 SOSs, and 0 indicators.
Presolve time = 0.19 sec. (171.38 ticks)
Probing fixed 370 vars, tightened 2850 bounds.
Probing time = 0.84 sec. (874.17 ticks)
Tried aggregator 2 times.
Detecting symmetries...
MIP Presolve eliminated 834 rows and 742 columns.
MIP Presolve modified 2234 coefficients.
Aggregator did 44 substitutions.
Reduced MIP has 24000 rows, 20441 columns, and 68398 nonzeros.
Reduced MIP has 8028 binaries, 0 generals, 0 SOSs, and 0 indicators.
Presolve time = 0.08 sec. (68.50 ticks)
Probing time = 0.02 sec. (15.78 ticks)
Clique table members: 6356.
MIP emphasis: balance optimality and feasibility.
MIP search method: dynamic search.
Parallel mode: opportunistic, using up to 16 threads.
Root relaxation solution time = 0.31 sec. (244.83 ticks)

        Nodes                                         Cuts/
   Node  Left     Objective  IInf  Best Integer    Best Bound    ItCnt     Gap

      0     0    99368.1649   836                  99368.1649     3650         
      0     0    97756.5367   706                   Cuts: 583     3935         
      0     0    97755.9651   584                   Cuts: 399     4094         
      0     0    97755.3970   531                   Cuts: 198     4172         
      0     0    97755.3970   511                    Cuts: 59     4198         
      0     0    97755.3970   491                    Cuts: 45     4220         
      0     0    97755.3970   486                    Cuts: 41     4230         
      0     0    97755.3970   479                    Cuts: 19     4235         
      0     0    97755.3970   475                    Cuts: 11     4241         
Repair heuristic found nothing.
      0     2    97755.3970   475                  97735.3034     4241         
Elapsed time = 9.81 sec. (5984.36 ticks, tree = 0.02 MB, solutions = 0)
    130    79    97429.5126   465                  97429.5126     4557         
    485    67    85059.9785   402                  97429.5126     4505         
    865   250    97235.8575   415                  97429.5126     5821         
   1238   427    78720.2110   376                  97429.5126     7960         
   1628   662    58832.3151   332                  97429.5126    10449         
   2008  1105    82054.3062   369                  97429.5126    12851         
   2380  2112    97194.5113   387                  97429.5126    14678         
   2831  1160    61990.8111   285                  97429.5126    12860         
   3424  2536    72246.8273   298                  97429.5126    15997         
*  4584+ 1675                        82811.0452    97429.5126            17.65%
Elapsed time = 25.42 sec. (8638.75 ticks, tree = 11.73 MB, solutions = 5)
   6451  1023    97353.3546   432    82811.0452    97429.5126    17159   17.65%
   7574  1810    97323.3757   372    82811.0452    97429.5126    18786   17.65%

Performing restart 1

Repeating presolve.
Tried aggregator 3 times.
MIP Presolve eliminated 813 rows and 716 columns.
MIP Presolve modified 7130 coefficients.
Aggregator did 168 substitutions.
Reduced MIP has 23019 rows, 19557 columns, and 62913 nonzeros.
Reduced MIP has 7670 binaries, 0 generals, 0 SOSs, and 0 indicators.
Presolve time = 0.06 sec. (62.12 ticks)
Tried aggregator 3 times.
MIP Presolve eliminated 368 rows and 300 columns.
MIP Presolve modified 324 coefficients.
Aggregator did 12 substitutions.
Reduced MIP has 22639 rows, 19245 columns, and 61841 nonzeros.
Reduced MIP has 7520 binaries, 0 generals, 0 SOSs, and 0 indicators.
Presolve time = 0.05 sec. (50.18 ticks)
Tried aggregator 2 times.
MIP Presolve eliminated 48 rows and 48 columns.
MIP Presolve modified 259 coefficients.
Aggregator did 17 substitutions.
Reduced MIP has 22574 rows, 19180 columns, and 61652 nonzeros.
Reduced MIP has 7496 binaries, 0 generals, 0 SOSs, and 0 indicators.
Presolve time = 0.06 sec. (66.05 ticks)
Represolve time = 1.67 sec. (1266.91 ticks)

Clique cuts applied:  12
Implied bound cuts applied:  33
Flow cuts applied:  448
Mixed integer rounding cuts applied:  24
Gomory fractional cuts applied:  31

Root node processing (before b&c):
  Real time             =    8.97 sec. (5941.32 ticks)
Parallel b&c, 16 threads:
  Real time             =   21.55 sec. (7107.11 ticks)
  Sync time (average)   =    0.21 sec.
  Wait time (average)   =    0.00 sec.
                          ------------
Total (root+branch&cut) =   30.52 sec. (13048.43 ticks)

Solution pool: 6 solutions saved.

MIP - Integer optimal solution:  Objective =  8.2811045167e+04
Solution time =   30.52 sec.  Iterations = 27476  Nodes = 8350
Deterministic time = 13048.58 ticks  (427.60 ticks/sec)

CPLEX> Incumbent solution written to file 'C:\Users\wenmi\Desktop\competitiveMPEC\logs\tmphjsaivj4.cplex.sol'.
CPLEX> Exporting results... 
